p edge 145 144 62
e 1 94
e 2 38
e 3 43
e 3 118
e 3 145
e 4 7
e 4 10
e 4 103
e 4 92
e 5 26
e 5 114
e 5 12
e 6 50
e 6 38
e 6 98
e 8 134
e 9 93
e 9 77
e 10 101
e 11 35
e 12 67
e 12 31
e 12 144
e 12 74
e 13 124
e 14 120
e 14 140
e 15 34
e 15 132
e 16 44
e 16 110
e 16 137
e 16 132
e 17 127
e 18 32
e 18 101
e 19 50
e 20 121
e 20 53
e 20 75
e 21 58
e 22 94
e 23 27
e 23 103
e 24 67
e 25 101
e 27 134
e 28 88
e 29 82
e 30 59
e 30 111
e 30 53
e 31 90
e 31 105
e 32 49
e 33 61
e 33 51
e 34 122
e 35 145
e 36 59
e 37 73
e 37 66
e 37 111
e 38 64
e 39 134
e 40 87
e 41 74
e 41 86
e 42 139
e 43 104
e 45 98
e 46 78
e 46 110
e 47 58
e 48 58
e 48 141
e 48 60
e 51 131
e 51 75
e 51 80
e 52 121
e 54 80
e 54 140
e 55 109
e 55 59
e 56 115
e 56 138
e 57 70
e 59 79
e 60 138
e 60 107
e 60 72
e 61 85
e 62 138
e 63 71
e 64 125
e 65 143
e 66 98
e 67 84
e 67 128
e 68 70
e 68 137
e 69 124
e 70 95
e 70 139
e 71 141
e 72 127
e 72 85
e 73 116
e 74 136
e 75 91
e 76 135
e 76 107
e 77 111
e 80 88
e 80 100
e 81 143
e 82 88
e 83 106
e 83 142
e 86 125
e 87 92
e 87 105
e 89 143
e 89 102
e 91 112
e 92 142
e 93 129
e 94 113
e 94 107
e 95 130
e 96 115
e 97 133
e 97 110
e 99 117
e 101 123
e 102 135
e 103 124
e 108 119
e 108 138
e 117 133
e 119 132
e 126 137
e 140 145
